33D32945 STP File, STP Format Version 1.0

SECTION Comment
Name 	 "n200_l1.2_rand-graph"
Creator 	"Indaco Biazzo"
Remark
END

SECTION Graph
Nodes 200
Edges 1636
E 1 129 2.000000
E 1 135 2.000000
E 1 140 2.000000
E 1 141 1.000000
E 1 14 4.000000
E 1 24 4.000000
E 1 25 2.000000
E 1 26 1.000000
E 1 168 2.000000
E 1 177 1.000000
E 1 54 1.000000
E 1 152 4.000000
E 1 190 4.000000
E 1 199 1.000000
E 1 73 4.000000
E 1 75 2.000000
E 1 82 2.000000
E 1 84 1.000000
E 1 102 4.000000
E 1 103 2.000000
E 1 107 4.000000
E 1 112 4.000000
E 1 119 1.000000
E 1 122 4.000000
E 2 20 4.000000
E 2 195 4.000000
E 2 132 2.000000
E 2 148 1.000000
E 2 71 1.000000
E 2 178 1.000000
E 2 73 4.000000
E 2 11 1.000000
E 2 179 2.000000
E 2 47 4.000000
E 2 62 1.000000
E 2 177 2.000000
E 2 114 2.000000
E 2 115 1.000000
E 2 52 2.000000
E 2 150 4.000000
E 2 88 1.000000
E 2 121 1.000000
E 2 197 2.000000
E 2 123 1.000000
E 2 30 2.000000
E 3 65 4.000000
E 3 113 2.000000
E 3 4 2.000000
E 3 69 4.000000
E 3 38 1.000000
E 3 71 2.000000
E 3 76 2.000000
E 3 141 2.000000
E 3 78 1.000000
E 3 111 4.000000
E 3 142 1.000000
E 3 81 1.000000
E 3 51 4.000000
E 3 21 4.000000
E 3 189 2.000000
E 3 126 2.000000
E 3 160 1.000000
E 4 113 1.000000
E 4 69 2.000000
E 4 167 1.000000
E 4 14 1.000000
E 4 81 2.000000
E 4 147 1.000000
E 4 181 2.000000
E 4 54 4.000000
E 4 121 4.000000
E 4 29 2.000000
E 4 30 2.000000
E 5 129 2.000000
E 5 66 1.000000
E 5 131 4.000000
E 5 132 2.000000
E 5 133 1.000000
E 5 198 1.000000
E 5 196 2.000000
E 5 136 2.000000
E 5 170 2.000000
E 5 11 4.000000
E 5 168 4.000000
E 5 110 1.000000
E 5 50 2.000000
E 5 164 4.000000
E 5 54 2.000000
E 5 151 2.000000
E 5 88 1.000000
E 5 154 2.000000
E 5 43 2.000000
E 5 150 2.000000
E 6 163 2.000000
E 6 132 2.000000
E 6 198 2.000000
E 6 40 2.000000
E 6 42 1.000000
E 6 14 2.000000
E 6 80 4.000000
E 6 174 2.000000
E 6 185 1.000000
E 6 154 1.000000
E 6 59 2.000000
E 6 158 1.000000
E 7 161 1.000000
E 7 194 1.000000
E 7 67 2.000000
E 7 68 4.000000
E 7 37 2.000000
E 7 146 2.000000
E 7 137 2.000000
E 7 172 2.000000
E 7 109 2.000000
E 7 195 4.000000
E 7 82 4.000000
E 7 164 4.000000
E 7 21 2.000000
E 7 182 2.000000
E 7 152 4.000000
E 7 197 1.000000
E 7 158 1.000000
E 7 95 2.000000
E 8 66 4.000000
E 8 69 2.000000
E 8 98 2.000000
E 8 73 4.000000
E 8 10 2.000000
E 8 171 4.000000
E 8 177 4.000000
E 8 109 2.000000
E 8 146 4.000000
E 8 81 4.000000
E 8 89 4.000000
E 8 148 1.000000
E 8 175 4.000000
E 8 57 4.000000
E 8 125 4.000000
E 8 62 4.000000
E 8 127 1.000000
E 9 103 4.000000
E 9 106 1.000000
E 9 141 2.000000
E 9 144 4.000000
E 9 181 1.000000
E 9 86 2.000000
E 9 119 1.000000
E 9 58 1.000000
E 9 59 1.000000
E 9 92 1.000000
E 9 160 4.000000
E 10 137 4.000000
E 10 139 2.000000
E 10 151 4.000000
E 10 152 4.000000
E 10 159 2.000000
E 10 33 2.000000
E 10 170 4.000000
E 10 53 2.000000
E 10 186 1.000000
E 10 187 2.000000
E 10 188 2.000000
E 10 200 2.000000
E 10 73 1.000000
E 10 74 2.000000
E 10 79 4.000000
E 10 82 4.000000
E 10 85 2.000000
E 10 58 1.000000
E 10 90 2.000000
E 10 93 1.000000
E 10 103 1.000000
E 11 134 1.000000
E 11 38 2.000000
E 11 150 4.000000
E 11 73 2.000000
E 11 12 1.000000
E 11 152 4.000000
E 11 114 2.000000
E 11 85 2.000000
E 11 54 1.000000
E 11 88 2.000000
E 11 57 2.000000
E 11 165 4.000000
E 11 59 2.000000
E 11 102 2.000000
E 11 30 2.000000
E 11 31 2.000000
E 11 32 4.000000
E 12 134 4.000000
E 12 102 4.000000
E 12 72 2.000000
E 12 105 4.000000
E 12 138 4.000000
E 12 168 4.000000
E 12 142 4.000000
E 12 115 1.000000
E 12 171 4.000000
E 12 92 4.000000
E 12 157 1.000000
E 12 158 1.000000
E 12 63 1.000000
E 12 38 4.000000
E 13 194 2.000000
E 13 167 1.000000
E 13 44 1.000000
E 13 14 1.000000
E 13 15 1.000000
E 13 110 4.000000
E 13 84 4.000000
E 13 27 1.000000
E 13 62 4.000000
E 14 146 4.000000
E 14 175 1.000000
E 14 48 2.000000
E 14 113 2.000000
E 14 18 4.000000
E 14 51 4.000000
E 14 68 1.000000
E 14 116 1.000000
E 14 154 4.000000
E 14 58 2.000000
E 14 112 2.000000
E 14 31 4.000000
E 14 160 4.000000
E 15 35 4.000000
E 15 166 1.000000
E 15 106 1.000000
E 15 44 4.000000
E 15 142 1.000000
E 15 146 2.000000
E 15 83 4.000000
E 15 84 2.000000
E 15 118 2.000000
E 15 87 1.000000
E 15 128 1.000000
E 15 28 2.000000
E 15 94 4.000000
E 15 32 4.000000
E 16 34 1.000000
E 16 108 4.000000
E 16 71 2.000000
E 16 200 2.000000
E 16 169 2.000000
E 16 106 2.000000
E 16 171 2.000000
E 16 44 1.000000
E 16 124 4.000000
E 16 140 4.000000
E 16 172 2.000000
E 16 23 4.000000
E 16 153 4.000000
E 16 60 1.000000
E 16 30 4.000000
E 16 63 4.000000
E 17 69 2.000000
E 17 181 2.000000
E 17 37 2.000000
E 17 70 1.000000
E 17 42 2.000000
E 17 107 1.000000
E 17 46 4.000000
E 17 143 1.000000
E 17 176 2.000000
E 17 113 2.000000
E 17 157 4.000000
E 17 106 4.000000
E 17 23 2.000000
E 17 58 2.000000
E 17 26 1.000000
E 17 192 1.000000
E 17 102 1.000000
E 17 64 4.000000
E 18 66 1.000000
E 18 152 1.000000
E 18 100 2.000000
E 18 134 2.000000
E 18 88 1.000000
E 18 144 4.000000
E 18 113 1.000000
E 18 118 2.000000
E 18 56 2.000000
E 18 192 2.000000
E 18 28 1.000000
E 18 61 1.000000
E 18 63 2.000000
E 18 182 4.000000
E 19 194 2.000000
E 19 165 4.000000
E 19 23 4.000000
E 19 103 1.000000
E 19 178 4.000000
E 19 79 2.000000
E 19 177 2.000000
E 19 50 2.000000
E 19 150 4.000000
E 19 55 2.000000
E 19 59 1.000000
E 19 190 4.000000
E 19 70 1.000000
E 20 165 1.000000
E 20 69 4.000000
E 20 24 1.000000
E 20 145 1.000000
E 20 21 2.000000
E 20 127 4.000000
E 20 88 2.000000
E 20 117 4.000000
E 20 158 2.000000
E 20 95 2.000000
E 21 129 2.000000
E 21 162 1.000000
E 21 39 1.000000
E 21 137 4.000000
E 21 48 4.000000
E 21 177 1.000000
E 21 179 2.000000
E 21 182 2.000000
E 21 25 2.000000
E 21 157 2.000000
E 21 94 1.000000
E 21 127 2.000000
E 22 161 4.000000
E 22 68 1.000000
E 22 102 4.000000
E 22 200 2.000000
E 22 61 1.000000
E 22 50 4.000000
E 22 132 1.000000
E 22 85 4.000000
E 22 182 2.000000
E 22 120 4.000000
E 22 185 4.000000
E 22 91 2.000000
E 22 29 2.000000
E 22 95 4.000000
E 22 128 1.000000
E 23 130 1.000000
E 23 35 1.000000
E 23 164 4.000000
E 23 166 1.000000
E 23 75 1.000000
E 23 140 2.000000
E 23 109 2.000000
E 23 51 2.000000
E 23 47 2.000000
E 23 180 1.000000
E 23 117 1.000000
E 23 86 1.000000
E 23 152 1.000000
E 23 25 4.000000
E 23 155 4.000000
E 24 161 1.000000
E 24 163 2.000000
E 24 140 1.000000
E 24 39 2.000000
E 24 40 4.000000
E 24 195 2.000000
E 24 136 4.000000
E 24 141 2.000000
E 24 46 1.000000
E 24 181 2.000000
E 24 51 2.000000
E 24 149 2.000000
E 24 191 1.000000
E 24 184 2.000000
E 24 58 2.000000
E 24 31 4.000000
E 25 119 2.000000
E 25 74 1.000000
E 25 43 1.000000
E 25 108 1.000000
E 25 118 2.000000
E 25 57 1.000000
E 25 91 1.000000
E 25 192 2.000000
E 25 94 1.000000
E 25 127 1.000000
E 25 166 1.000000
E 26 81 4.000000
E 26 99 4.000000
E 26 69 4.000000
E 26 101 2.000000
E 26 65 2.000000
E 26 172 4.000000
E 26 193 2.000000
E 26 142 2.000000
E 26 169 4.000000
E 26 53 2.000000
E 26 197 2.000000
E 26 119 2.000000
E 26 186 2.000000
E 26 85 1.000000
E 26 125 1.000000
E 27 33 4.000000
E 27 129 2.000000
E 27 102 4.000000
E 27 71 2.000000
E 27 194 4.000000
E 27 173 1.000000
E 27 108 1.000000
E 27 175 4.000000
E 27 144 1.000000
E 27 81 2.000000
E 27 51 1.000000
E 27 156 2.000000
E 27 167 2.000000
E 27 200 4.000000
E 27 166 4.000000
E 28 33 4.000000
E 28 130 2.000000
E 28 143 4.000000
E 28 134 1.000000
E 28 71 2.000000
E 28 72 2.000000
E 28 76 2.000000
E 28 48 1.000000
E 28 86 1.000000
E 28 152 2.000000
E 28 90 2.000000
E 28 91 2.000000
E 28 187 4.000000
E 28 135 2.000000
E 28 64 1.000000
E 29 37 2.000000
E 29 172 1.000000
E 29 142 4.000000
E 29 176 1.000000
E 29 84 2.000000
E 29 186 4.000000
E 29 118 4.000000
E 30 163 2.000000
E 30 136 2.000000
E 30 69 4.000000
E 30 164 4.000000
E 30 66 4.000000
E 30 74 4.000000
E 30 108 1.000000
E 30 46 4.000000
E 30 147 4.000000
E 30 148 2.000000
E 30 54 2.000000
E 30 121 4.000000
E 30 125 4.000000
E 31 65 4.000000
E 31 145 1.000000
E 31 35 1.000000
E 31 100 2.000000
E 31 101 2.000000
E 31 167 1.000000
E 31 200 4.000000
E 31 195 4.000000
E 31 108 2.000000
E 31 109 4.000000
E 31 113 1.000000
E 31 147 4.000000
E 31 164 1.000000
E 31 153 1.000000
E 31 186 2.000000
E 31 91 4.000000
E 31 60 2.000000
E 31 126 4.000000
E 32 71 4.000000
E 32 136 2.000000
E 32 42 4.000000
E 32 112 4.000000
E 32 181 2.000000
E 32 57 4.000000
E 32 124 4.000000
E 32 125 2.000000
E 32 128 1.000000
E 33 129 2.000000
E 33 131 2.000000
E 33 164 4.000000
E 33 136 1.000000
E 33 108 1.000000
E 33 111 1.000000
E 33 82 1.000000
E 33 179 2.000000
E 33 172 1.000000
E 33 120 2.000000
E 33 153 2.000000
E 33 187 1.000000
E 34 98 2.000000
E 34 195 2.000000
E 34 142 1.000000
E 34 146 4.000000
E 34 183 2.000000
E 34 184 4.000000
E 34 158 4.000000
E 34 96 1.000000
E 35 132 4.000000
E 35 141 2.000000
E 35 142 4.000000
E 35 155 1.000000
E 35 41 4.000000
E 35 42 2.000000
E 35 49 1.000000
E 35 53 2.000000
E 35 55 4.000000
E 35 67 1.000000
E 35 81 2.000000
E 35 93 1.000000
E 35 94 1.000000
E 35 97 4.000000
E 35 98 2.000000
E 35 100 2.000000
E 35 107 4.000000
E 35 114 1.000000
E 35 123 4.000000
E 36 145 4.000000
E 36 99 4.000000
E 36 101 4.000000
E 36 102 2.000000
E 36 172 1.000000
E 36 113 4.000000
E 36 117 2.000000
E 36 55 4.000000
E 36 153 4.000000
E 36 198 1.000000
E 36 92 2.000000
E 36 183 2.000000
E 37 130 1.000000
E 37 164 2.000000
E 37 39 2.000000
E 37 168 1.000000
E 37 106 4.000000
E 37 120 4.000000
E 37 174 2.000000
E 37 143 1.000000
E 37 112 2.000000
E 37 181 2.000000
E 37 52 4.000000
E 37 149 1.000000
E 37 118 1.000000
E 37 87 2.000000
E 37 56 1.000000
E 37 90 4.000000
E 37 128 1.000000
E 38 130 2.000000
E 38 76 4.000000
E 38 69 1.000000
E 38 70 1.000000
E 38 39 4.000000
E 38 137 1.000000
E 38 78 4.000000
E 38 183 1.000000
E 38 89 2.000000
E 38 197 1.000000
E 38 189 1.000000
E 39 162 1.000000
E 39 195 4.000000
E 39 104 2.000000
E 39 157 2.000000
E 39 139 2.000000
E 39 152 4.000000
E 39 49 1.000000
E 39 179 1.000000
E 39 125 1.000000
E 39 184 2.000000
E 39 95 4.000000
E 39 160 1.000000
E 40 200 2.000000
E 40 176 4.000000
E 40 112 2.000000
E 40 50 4.000000
E 40 154 2.000000
E 40 156 2.000000
E 40 126 4.000000
E 40 128 4.000000
E 41 135 2.000000
E 41 72 1.000000
E 41 44 1.000000
E 41 49 2.000000
E 41 181 4.000000
E 41 118 2.000000
E 41 119 4.000000
E 41 57 2.000000
E 41 187 1.000000
E 42 145 2.000000
E 42 131 2.000000
E 42 72 1.000000
E 42 107 1.000000
E 42 136 4.000000
E 42 141 2.000000
E 42 67 4.000000
E 42 80 1.000000
E 42 115 4.000000
E 42 185 1.000000
E 42 158 2.000000
E 43 162 2.000000
E 43 70 2.000000
E 43 71 4.000000
E 43 44 1.000000
E 43 141 4.000000
E 43 46 4.000000
E 43 174 2.000000
E 43 147 4.000000
E 43 86 2.000000
E 43 183 4.000000
E 43 133 2.000000
E 43 60 4.000000
E 43 167 4.000000
E 43 158 2.000000
E 43 160 4.000000
E 44 155 4.000000
E 44 168 1.000000
E 44 170 2.000000
E 44 45 1.000000
E 44 184 2.000000
E 44 57 4.000000
E 44 59 1.000000
E 44 188 2.000000
E 44 193 1.000000
E 44 70 2.000000
E 44 200 1.000000
E 44 77 4.000000
E 44 78 4.000000
E 44 82 2.000000
E 44 85 4.000000
E 44 110 4.000000
E 44 111 4.000000
E 44 117 4.000000
E 45 193 2.000000
E 45 55 4.000000
E 45 168 4.000000
E 45 175 2.000000
E 45 51 4.000000
E 45 180 1.000000
E 45 86 4.000000
E 45 119 2.000000
E 45 122 2.000000
E 45 182 2.000000
E 46 65 4.000000
E 46 177 4.000000
E 46 102 4.000000
E 46 71 4.000000
E 46 200 4.000000
E 46 111 1.000000
E 46 48 4.000000
E 46 181 4.000000
E 46 155 2.000000
E 46 192 4.000000
E 47 65 1.000000
E 47 131 4.000000
E 47 135 1.000000
E 47 98 2.000000
E 47 170 2.000000
E 47 108 2.000000
E 47 113 2.000000
E 47 53 1.000000
E 47 184 1.000000
E 47 90 4.000000
E 47 187 1.000000
E 48 162 1.000000
E 48 124 4.000000
E 48 197 4.000000
E 48 180 2.000000
E 48 104 4.000000
E 48 132 2.000000
E 48 187 4.000000
E 48 93 2.000000
E 48 62 4.000000
E 49 65 4.000000
E 49 69 4.000000
E 49 104 4.000000
E 49 75 4.000000
E 49 140 2.000000
E 49 78 1.000000
E 49 50 2.000000
E 49 85 2.000000
E 49 163 1.000000
E 49 121 2.000000
E 49 123 2.000000
E 49 185 2.000000
E 49 131 1.000000
E 50 129 1.000000
E 50 177 2.000000
E 50 137 1.000000
E 50 171 1.000000
E 50 110 4.000000
E 50 149 1.000000
E 50 165 4.000000
E 50 159 4.000000
E 51 197 4.000000
E 51 55 2.000000
E 51 72 1.000000
E 51 73 2.000000
E 51 136 4.000000
E 51 142 2.000000
E 51 122 2.000000
E 51 58 4.000000
E 51 156 2.000000
E 51 190 2.000000
E 51 127 2.000000
E 52 132 2.000000
E 52 69 2.000000
E 52 105 1.000000
E 52 74 1.000000
E 52 75 4.000000
E 52 108 1.000000
E 52 143 2.000000
E 52 82 4.000000
E 52 116 1.000000
E 52 188 1.000000
E 52 90 2.000000
E 52 121 2.000000
E 52 59 2.000000
E 52 60 1.000000
E 52 96 1.000000
E 53 145 2.000000
E 53 68 1.000000
E 53 69 1.000000
E 53 200 4.000000
E 53 152 4.000000
E 53 190 2.000000
E 53 116 4.000000
E 53 83 1.000000
E 53 84 4.000000
E 53 183 4.000000
E 53 88 4.000000
E 53 89 1.000000
E 53 184 4.000000
E 53 64 1.000000
E 54 98 2.000000
E 54 67 2.000000
E 54 167 1.000000
E 54 200 1.000000
E 54 169 4.000000
E 54 62 4.000000
E 54 82 1.000000
E 54 179 4.000000
E 54 149 1.000000
E 54 152 2.000000
E 54 58 4.000000
E 54 186 4.000000
E 55 99 2.000000
E 55 147 4.000000
E 55 168 1.000000
E 55 81 4.000000
E 55 178 4.000000
E 55 132 2.000000
E 56 98 1.000000
E 56 195 4.000000
E 56 188 1.000000
E 56 82 2.000000
E 56 93 2.000000
E 56 197 2.000000
E 56 200 2.000000
E 56 160 1.000000
E 56 178 2.000000
E 56 113 2.000000
E 56 116 4.000000
E 56 117 2.000000
E 56 150 4.000000
E 56 58 2.000000
E 56 60 4.000000
E 56 61 2.000000
E 56 96 2.000000
E 57 129 1.000000
E 57 162 4.000000
E 57 172 4.000000
E 57 198 2.000000
E 57 137 1.000000
E 57 179 1.000000
E 57 151 2.000000
E 57 171 1.000000
E 57 58 4.000000
E 57 169 2.000000
E 57 189 1.000000
E 57 75 4.000000
E 58 161 1.000000
E 58 182 4.000000
E 58 167 1.000000
E 58 109 2.000000
E 58 89 2.000000
E 58 148 2.000000
E 58 74 1.000000
E 58 91 4.000000
E 58 92 2.000000
E 58 61 4.000000
E 58 94 1.000000
E 58 128 1.000000
E 59 130 4.000000
E 59 143 1.000000
E 59 134 1.000000
E 59 168 4.000000
E 59 181 2.000000
E 59 186 1.000000
E 59 160 2.000000
E 59 64 2.000000
E 59 65 4.000000
E 59 194 2.000000
E 59 195 1.000000
E 59 76 2.000000
E 59 80 4.000000
E 59 81 4.000000
E 59 83 1.000000
E 59 84 2.000000
E 59 86 1.000000
E 59 95 4.000000
E 59 99 1.000000
E 59 105 2.000000
E 59 118 4.000000
E 59 122 2.000000
E 60 197 4.000000
E 60 103 2.000000
E 60 72 2.000000
E 60 106 4.000000
E 60 88 1.000000
E 60 77 4.000000
E 60 81 4.000000
E 61 129 1.000000
E 61 162 4.000000
E 61 100 1.000000
E 61 199 1.000000
E 61 135 2.000000
E 61 73 4.000000
E 61 152 2.000000
E 61 127 2.000000
E 61 145 1.000000
E 61 179 2.000000
E 61 116 2.000000
E 61 151 4.000000
E 61 154 4.000000
E 61 182 1.000000
E 61 105 1.000000
E 61 118 1.000000
E 62 129 1.000000
E 62 132 4.000000
E 62 134 2.000000
E 62 158 4.000000
E 62 164 4.000000
E 62 167 2.000000
E 62 185 1.000000
E 62 187 1.000000
E 62 198 2.000000
E 62 199 2.000000
E 62 74 1.000000
E 62 75 4.000000
E 62 84 1.000000
E 62 92 1.000000
E 62 106 2.000000
E 62 108 2.000000
E 62 109 4.000000
E 62 114 2.000000
E 62 128 4.000000
E 63 97 2.000000
E 63 103 1.000000
E 63 71 4.000000
E 63 114 2.000000
E 63 73 4.000000
E 63 106 1.000000
E 63 179 4.000000
E 63 146 2.000000
E 63 115 1.000000
E 63 175 1.000000
E 63 152 2.000000
E 63 184 2.000000
E 63 167 1.000000
E 63 126 4.000000
E 63 166 2.000000
E 64 132 4.000000
E 64 134 2.000000
E 64 136 4.000000
E 64 170 1.000000
E 64 80 1.000000
E 64 186 1.000000
E 64 188 2.000000
E 64 122 1.000000
E 64 90 4.000000
E 64 93 1.000000
E 64 94 4.000000
E 64 127 1.000000
E 64 166 4.000000
E 65 161 2.000000
E 65 81 2.000000
E 65 164 2.000000
E 65 73 2.000000
E 65 170 1.000000
E 65 75 1.000000
E 65 110 2.000000
E 65 116 2.000000
E 65 154 1.000000
E 65 144 1.000000
E 65 189 1.000000
E 65 160 4.000000
E 66 129 4.000000
E 66 101 4.000000
E 66 67 4.000000
E 66 199 1.000000
E 66 145 1.000000
E 66 173 4.000000
E 66 113 2.000000
E 66 148 1.000000
E 66 154 1.000000
E 66 90 4.000000
E 66 123 1.000000
E 66 191 2.000000
E 66 128 1.000000
E 67 97 2.000000
E 67 100 4.000000
E 67 69 4.000000
E 67 137 4.000000
E 67 78 1.000000
E 67 151 4.000000
E 67 170 4.000000
E 67 122 1.000000
E 67 91 2.000000
E 67 93 4.000000
E 67 86 1.000000
E 68 149 1.000000
E 68 101 2.000000
E 68 136 2.000000
E 68 88 2.000000
E 68 89 4.000000
E 68 122 2.000000
E 69 138 2.000000
E 69 140 2.000000
E 69 143 4.000000
E 69 154 2.000000
E 69 155 4.000000
E 69 157 4.000000
E 69 177 4.000000
E 69 175 4.000000
E 69 187 4.000000
E 69 85 1.000000
E 69 88 4.000000
E 69 101 2.000000
E 69 105 2.000000
E 69 109 2.000000
E 69 124 2.000000
E 70 193 4.000000
E 70 163 2.000000
E 70 199 4.000000
E 70 125 2.000000
E 70 144 1.000000
E 70 116 2.000000
E 70 185 4.000000
E 70 188 1.000000
E 70 93 2.000000
E 70 171 2.000000
E 71 193 1.000000
E 71 100 1.000000
E 71 162 2.000000
E 71 74 4.000000
E 71 172 1.000000
E 71 109 4.000000
E 71 111 2.000000
E 71 147 1.000000
E 71 117 1.000000
E 71 183 4.000000
E 71 170 4.000000
E 71 110 4.000000
E 72 163 1.000000
E 72 179 2.000000
E 72 115 1.000000
E 72 169 1.000000
E 72 176 1.000000
E 72 137 4.000000
E 72 85 4.000000
E 72 175 1.000000
E 72 87 4.000000
E 72 88 2.000000
E 72 90 4.000000
E 72 127 1.000000
E 73 167 4.000000
E 73 172 2.000000
E 73 84 1.000000
E 73 87 4.000000
E 73 155 4.000000
E 73 94 2.000000
E 74 129 1.000000
E 74 98 1.000000
E 74 99 2.000000
E 74 148 1.000000
E 74 166 1.000000
E 74 193 2.000000
E 74 110 1.000000
E 74 158 2.000000
E 74 185 1.000000
E 74 117 1.000000
E 74 122 2.000000
E 75 200 2.000000
E 75 171 2.000000
E 75 175 1.000000
E 75 179 4.000000
E 75 189 4.000000
E 76 194 2.000000
E 76 99 4.000000
E 76 100 4.000000
E 76 167 1.000000
E 76 136 4.000000
E 76 169 2.000000
E 76 140 2.000000
E 76 109 2.000000
E 76 142 4.000000
E 76 156 2.000000
E 76 122 4.000000
E 76 125 1.000000
E 76 95 1.000000
E 76 166 2.000000
E 77 161 4.000000
E 77 197 1.000000
E 77 198 4.000000
E 77 103 1.000000
E 77 108 1.000000
E 77 143 4.000000
E 77 146 1.000000
E 77 124 2.000000
E 77 196 2.000000
E 78 130 4.000000
E 78 197 4.000000
E 78 104 1.000000
E 78 169 1.000000
E 78 111 1.000000
E 78 176 4.000000
E 78 85 4.000000
E 78 122 2.000000
E 78 153 1.000000
E 78 90 2.000000
E 78 123 2.000000
E 78 93 1.000000
E 78 198 2.000000
E 79 189 4.000000
E 79 194 4.000000
E 79 84 4.000000
E 79 198 1.000000
E 79 140 2.000000
E 79 142 4.000000
E 79 174 1.000000
E 79 82 1.000000
E 79 116 1.000000
E 79 122 2.000000
E 79 157 2.000000
E 79 191 4.000000
E 79 160 4.000000
E 80 107 2.000000
E 80 173 4.000000
E 80 179 1.000000
E 80 81 1.000000
E 80 115 2.000000
E 80 116 2.000000
E 80 182 2.000000
E 80 121 4.000000
E 80 125 1.000000
E 81 130 4.000000
E 81 148 4.000000
E 81 167 1.000000
E 81 172 2.000000
E 81 182 1.000000
E 81 183 4.000000
E 81 197 2.000000
E 81 199 1.000000
E 81 91 4.000000
E 81 132 2.000000
E 81 109 1.000000
E 82 102 2.000000
E 82 105 1.000000
E 82 191 1.000000
E 82 190 2.000000
E 82 178 2.000000
E 82 117 1.000000
E 82 88 4.000000
E 82 184 4.000000
E 82 159 2.000000
E 82 198 2.000000
E 83 161 2.000000
E 83 98 4.000000
E 83 163 4.000000
E 83 197 4.000000
E 83 177 2.000000
E 83 149 2.000000
E 83 175 1.000000
E 83 184 4.000000
E 83 89 2.000000
E 83 160 4.000000
E 84 143 2.000000
E 84 144 2.000000
E 84 147 1.000000
E 84 177 2.000000
E 84 182 4.000000
E 84 193 1.000000
E 84 194 1.000000
E 84 94 2.000000
E 84 97 1.000000
E 84 105 4.000000
E 84 106 1.000000
E 84 110 4.000000
E 84 113 4.000000
E 84 119 1.000000
E 84 123 2.000000
E 85 130 2.000000
E 85 172 4.000000
E 85 167 4.000000
E 85 122 2.000000
E 85 155 4.000000
E 85 157 4.000000
E 85 187 1.000000
E 86 97 1.000000
E 86 194 2.000000
E 86 100 4.000000
E 86 197 4.000000
E 86 141 4.000000
E 86 144 1.000000
E 86 179 1.000000
E 86 116 1.000000
E 86 189 2.000000
E 87 99 4.000000
E 87 198 1.000000
E 87 136 2.000000
E 87 144 2.000000
E 87 137 2.000000
E 87 150 1.000000
E 87 159 2.000000
E 88 144 1.000000
E 88 145 1.000000
E 88 146 2.000000
E 88 150 1.000000
E 88 167 2.000000
E 88 169 2.000000
E 88 184 2.000000
E 88 181 1.000000
E 88 189 4.000000
E 88 139 2.000000
E 88 95 4.000000
E 88 100 1.000000
E 88 196 2.000000
E 88 190 1.000000
E 89 97 4.000000
E 89 129 1.000000
E 89 99 4.000000
E 89 173 4.000000
E 89 109 2.000000
E 89 146 1.000000
E 89 184 4.000000
E 89 121 4.000000
E 89 93 4.000000
E 89 127 4.000000
E 89 166 4.000000
E 90 97 2.000000
E 90 196 2.000000
E 90 105 4.000000
E 90 129 1.000000
E 90 176 1.000000
E 90 178 1.000000
E 90 181 1.000000
E 90 111 4.000000
E 90 186 1.000000
E 90 94 1.000000
E 91 129 1.000000
E 91 113 2.000000
E 91 131 4.000000
E 91 130 2.000000
E 91 152 4.000000
E 91 127 4.000000
E 91 112 4.000000
E 91 185 2.000000
E 91 147 2.000000
E 91 161 2.000000
E 91 120 4.000000
E 92 133 4.000000
E 92 104 1.000000
E 92 110 2.000000
E 92 158 4.000000
E 92 105 2.000000
E 92 186 4.000000
E 92 123 4.000000
E 92 93 4.000000
E 93 161 4.000000
E 93 133 2.000000
E 93 105 2.000000
E 93 144 4.000000
E 93 177 2.000000
E 93 114 2.000000
E 93 154 1.000000
E 93 191 2.000000
E 93 138 2.000000
E 93 127 1.000000
E 94 129 2.000000
E 94 195 1.000000
E 94 174 4.000000
E 94 105 1.000000
E 94 111 4.000000
E 94 183 1.000000
E 94 96 4.000000
E 94 191 4.000000
E 95 130 2.000000
E 95 104 1.000000
E 95 138 1.000000
E 95 110 2.000000
E 95 179 2.000000
E 95 183 1.000000
E 95 170 4.000000
E 95 124 2.000000
E 95 123 1.000000
E 95 127 2.000000
E 95 128 1.000000
E 96 195 4.000000
E 96 198 2.000000
E 96 135 1.000000
E 96 172 2.000000
E 96 119 2.000000
E 96 121 1.000000
E 96 127 2.000000
E 96 160 1.000000
E 97 130 1.000000
E 97 116 1.000000
E 97 104 4.000000
E 97 107 1.000000
E 97 174 2.000000
E 97 121 4.000000
E 97 120 4.000000
E 97 157 2.000000
E 97 190 4.000000
E 98 188 2.000000
E 98 197 2.000000
E 98 195 1.000000
E 98 107 4.000000
E 98 175 4.000000
E 98 142 1.000000
E 98 144 2.000000
E 98 160 1.000000
E 98 127 4.000000
E 98 118 1.000000
E 99 131 1.000000
E 99 137 2.000000
E 99 139 1.000000
E 99 163 2.000000
E 99 195 1.000000
E 99 144 4.000000
E 99 153 1.000000
E 99 189 1.000000
E 99 156 2.000000
E 99 125 4.000000
E 99 176 4.000000
E 100 131 4.000000
E 100 135 1.000000
E 100 140 2.000000
E 100 144 2.000000
E 100 158 1.000000
E 100 166 2.000000
E 100 173 4.000000
E 100 191 1.000000
E 100 112 2.000000
E 100 113 1.000000
E 100 115 1.000000
E 100 126 4.000000
E 100 128 4.000000
E 101 164 1.000000
E 101 107 1.000000
E 101 118 2.000000
E 102 193 2.000000
E 102 170 2.000000
E 102 112 2.000000
E 102 157 2.000000
E 102 191 1.000000
E 102 182 4.000000
E 103 199 4.000000
E 103 200 4.000000
E 103 143 4.000000
E 103 112 4.000000
E 103 148 4.000000
E 103 159 2.000000
E 103 125 1.000000
E 104 176 1.000000
E 104 168 2.000000
E 104 172 2.000000
E 104 141 4.000000
E 104 181 1.000000
E 104 119 2.000000
E 104 122 1.000000
E 104 123 1.000000
E 104 157 2.000000
E 104 144 4.000000
E 105 193 4.000000
E 105 132 4.000000
E 105 114 2.000000
E 105 142 2.000000
E 105 118 4.000000
E 105 200 4.000000
E 105 185 1.000000
E 105 127 4.000000
E 106 163 4.000000
E 106 165 4.000000
E 106 178 2.000000
E 106 169 2.000000
E 106 117 1.000000
E 106 133 1.000000
E 106 157 1.000000
E 107 134 1.000000
E 107 136 1.000000
E 107 149 4.000000
E 107 197 2.000000
E 107 186 1.000000
E 108 129 4.000000
E 108 164 1.000000
E 108 200 2.000000
E 108 109 2.000000
E 108 145 1.000000
E 108 141 4.000000
E 108 151 2.000000
E 108 152 2.000000
E 109 145 4.000000
E 109 194 2.000000
E 109 111 4.000000
E 109 168 4.000000
E 109 196 2.000000
E 109 117 1.000000
E 109 166 4.000000
E 110 140 2.000000
E 110 138 2.000000
E 110 185 2.000000
E 110 170 1.000000
E 110 157 2.000000
E 111 132 1.000000
E 111 199 2.000000
E 111 177 1.000000
E 111 172 1.000000
E 112 172 4.000000
E 112 174 1.000000
E 112 145 1.000000
E 112 146 1.000000
E 112 116 4.000000
E 112 156 4.000000
E 112 151 4.000000
E 112 128 2.000000
E 112 158 2.000000
E 112 200 2.000000
E 113 132 4.000000
E 113 151 4.000000
E 113 172 4.000000
E 113 118 1.000000
E 113 152 2.000000
E 114 140 4.000000
E 114 115 1.000000
E 114 117 2.000000
E 114 191 1.000000
E 114 120 4.000000
E 114 160 2.000000
E 115 161 1.000000
E 115 199 4.000000
E 115 173 4.000000
E 115 146 2.000000
E 115 141 4.000000
E 115 132 2.000000
E 115 155 2.000000
E 115 124 2.000000
E 116 189 4.000000
E 116 157 4.000000
E 116 153 2.000000
E 116 155 2.000000
E 116 128 2.000000
E 117 135 4.000000
E 117 172 4.000000
E 117 181 2.000000
E 117 190 2.000000
E 117 151 4.000000
E 117 160 2.000000
E 118 133 1.000000
E 118 166 1.000000
E 118 194 4.000000
E 118 200 4.000000
E 118 176 1.000000
E 118 154 4.000000
E 118 151 1.000000
E 118 122 1.000000
E 119 196 2.000000
E 119 135 4.000000
E 119 178 2.000000
E 119 142 2.000000
E 119 182 2.000000
E 119 160 1.000000
E 120 146 2.000000
E 120 173 1.000000
E 120 141 1.000000
E 120 152 1.000000
E 120 153 4.000000
E 120 157 1.000000
E 121 166 4.000000
E 121 137 2.000000
E 121 185 2.000000
E 121 187 4.000000
E 122 166 1.000000
E 122 141 2.000000
E 123 195 2.000000
E 123 160 4.000000
E 123 143 4.000000
E 123 176 2.000000
E 123 127 1.000000
E 123 185 1.000000
E 123 154 2.000000
E 123 128 4.000000
E 124 162 1.000000
E 124 164 4.000000
E 124 194 2.000000
E 124 192 1.000000
E 124 145 1.000000
E 124 188 2.000000
E 124 183 1.000000
E 124 185 4.000000
E 124 191 1.000000
E 125 140 4.000000
E 125 175 2.000000
E 125 181 4.000000
E 125 168 2.000000
E 126 165 2.000000
E 126 191 4.000000
E 126 152 2.000000
E 126 186 2.000000
E 126 155 2.000000
E 127 199 4.000000
E 127 194 1.000000
E 127 184 1.000000
E 127 144 4.000000
E 127 170 2.000000
E 128 133 2.000000
E 128 138 2.000000
E 128 140 4.000000
E 128 163 1.000000
E 128 167 1.000000
E 128 172 4.000000
E 128 190 1.000000
E 128 192 4.000000
E 128 193 1.000000
E 128 197 1.000000
E 128 200 1.000000
E 129 172 4.000000
E 129 181 2.000000
E 129 189 4.000000
E 129 154 4.000000
E 129 192 4.000000
E 130 192 2.000000
E 130 164 2.000000
E 130 144 2.000000
E 130 180 2.000000
E 130 184 1.000000
E 130 183 1.000000
E 130 134 2.000000
E 131 161 1.000000
E 131 168 2.000000
E 131 151 1.000000
E 132 134 4.000000
E 132 137 1.000000
E 132 138 4.000000
E 132 144 4.000000
E 132 188 4.000000
E 132 195 4.000000
E 132 199 2.000000
E 133 137 1.000000
E 133 175 1.000000
E 133 147 2.000000
E 134 162 4.000000
E 134 187 2.000000
E 134 152 2.000000
E 134 157 4.000000
E 135 162 4.000000
E 135 163 2.000000
E 135 171 4.000000
E 135 164 2.000000
E 135 143 4.000000
E 135 159 1.000000
E 136 190 4.000000
E 136 196 1.000000
E 137 171 4.000000
E 137 155 4.000000
E 137 158 4.000000
E 137 192 4.000000
E 138 196 1.000000
E 138 167 1.000000
E 138 176 2.000000
E 138 164 1.000000
E 138 149 4.000000
E 138 192 1.000000
E 139 199 2.000000
E 139 142 1.000000
E 139 146 2.000000
E 139 185 4.000000
E 139 154 1.000000
E 139 189 2.000000
E 139 158 1.000000
E 140 164 2.000000
E 140 169 2.000000
E 140 148 1.000000
E 140 165 4.000000
E 140 186 1.000000
E 141 144 1.000000
E 141 150 4.000000
E 141 163 1.000000
E 141 173 2.000000
E 141 182 4.000000
E 141 184 1.000000
E 141 185 4.000000
E 141 187 1.000000
E 141 194 2.000000
E 142 195 2.000000
E 142 162 4.000000
E 142 196 4.000000
E 142 200 2.000000
E 142 191 1.000000
E 142 192 4.000000
E 143 190 4.000000
E 143 182 4.000000
E 144 157 4.000000
E 144 166 4.000000
E 144 173 1.000000
E 144 183 4.000000
E 144 190 2.000000
E 144 194 2.000000
E 145 200 2.000000
E 145 174 4.000000
E 145 177 4.000000
E 145 157 1.000000
E 145 159 4.000000
E 145 149 2.000000
E 146 179 1.000000
E 146 167 2.000000
E 146 155 2.000000
E 146 176 2.000000
E 146 192 2.000000
E 147 179 4.000000
E 147 160 1.000000
E 148 193 2.000000
E 148 183 2.000000
E 148 188 1.000000
E 149 197 2.000000
E 149 190 2.000000
E 150 193 4.000000
E 150 183 2.000000
E 150 199 1.000000
E 150 169 1.000000
E 150 152 4.000000
E 151 195 4.000000
E 151 174 1.000000
E 151 185 2.000000
E 151 158 4.000000
E 151 191 2.000000
E 152 164 4.000000
E 152 177 4.000000
E 152 184 2.000000
E 152 185 4.000000
E 152 181 1.000000
E 152 196 1.000000
E 153 180 1.000000
E 153 167 1.000000
E 153 170 2.000000
E 153 176 4.000000
E 153 156 4.000000
E 153 157 2.000000
E 154 186 4.000000
E 155 196 4.000000
E 155 166 2.000000
E 155 187 1.000000
E 156 161 2.000000
E 156 193 4.000000
E 156 167 1.000000
E 156 181 1.000000
E 156 183 1.000000
E 157 163 2.000000
E 157 175 1.000000
E 157 191 1.000000
E 158 165 1.000000
E 158 168 4.000000
E 158 173 1.000000
E 159 194 2.000000
E 159 195 1.000000
E 160 168 1.000000
E 160 178 1.000000
E 160 185 2.000000
E 161 164 4.000000
E 161 173 1.000000
E 161 181 2.000000
E 162 189 2.000000
E 162 178 2.000000
E 163 194 2.000000
E 164 176 4.000000
E 164 177 1.000000
E 164 195 2.000000
E 164 200 2.000000
E 165 194 4.000000
E 165 186 1.000000
E 166 185 1.000000
E 167 176 4.000000
E 167 187 2.000000
E 167 194 2.000000
E 167 195 2.000000
E 168 194 4.000000
E 168 183 2.000000
E 168 174 4.000000
E 168 197 2.000000
E 168 198 4.000000
E 169 183 1.000000
E 169 189 2.000000
E 170 188 2.000000
E 171 195 2.000000
E 171 187 1.000000
E 171 185 4.000000
E 171 190 1.000000
E 171 198 1.000000
E 172 189 4.000000
E 173 199 2.000000
E 174 177 4.000000
E 174 192 2.000000
E 174 188 4.000000
E 174 183 1.000000
E 175 199 4.000000
E 175 176 4.000000
E 175 178 2.000000
E 176 194 1.000000
E 176 198 4.000000
E 176 181 1.000000
E 176 182 2.000000
E 177 180 2.000000
E 177 191 4.000000
E 177 192 2.000000
E 178 184 4.000000
E 179 196 2.000000
E 179 200 1.000000
E 180 200 2.000000
E 181 200 2.000000
E 182 194 4.000000
E 182 200 4.000000
E 184 194 4.000000
E 184 189 2.000000
E 185 194 2.000000
E 186 195 2.000000
E 187 188 1.000000
E 187 189 4.000000
E 187 192 1.000000
E 188 200 2.000000
E 189 193 1.000000
E 191 200 1.000000
E 192 198 2.000000
E 193 200 4.000000
E 194 196 2.000000
E 199 200 4.000000
END

SECTION Terminals
Terminals 200
TP 1 0.991195
TP 2 0.859260
TP 3 0.860702
TP 4 0.992801
TP 5 0.429958
TP 6 0.943183
TP 7 0.032253
TP 8 1.194214
TP 9 0.208972
TP 10 0.486938
TP 11 0.436769
TP 12 0.353020
TP 13 0.109192
TP 14 1.126926
TP 15 1.127236
TP 16 1.112831
TP 17 0.733385
TP 18 0.202534
TP 19 0.760387
TP 20 1.083073
TP 21 0.398381
TP 22 0.099198
TP 23 0.830477
TP 24 0.940857
TP 25 0.505985
TP 26 0.683158
TP 27 0.830672
TP 28 0.627790
TP 29 1.060635
TP 30 0.313412
TP 31 0.223226
TP 32 0.872549
TP 33 1.072464
TP 34 1.152405
TP 35 0.166585
TP 36 0.446655
TP 37 0.276449
TP 38 0.657412
TP 39 0.332876
TP 40 0.837275
TP 41 0.572122
TP 42 0.908269
TP 43 0.762461
TP 44 1.116782
TP 45 0.412649
TP 46 0.862987
TP 47 0.685348
TP 48 0.589788
TP 49 0.329757
TP 50 0.461450
TP 51 0.969821
TP 52 0.810234
TP 53 0.800519
TP 54 0.788103
TP 55 0.481848
TP 56 0.943560
TP 57 0.883728
TP 58 1.045143
TP 59 0.939875
TP 60 0.701245
TP 61 0.895491
TP 62 0.091051
TP 63 1.139887
TP 64 0.460276
TP 65 0.202621
TP 66 0.061211
TP 67 0.808453
TP 68 0.244167
TP 69 0.887193
TP 70 0.393602
TP 71 0.477327
TP 72 0.434369
TP 73 0.922334
TP 74 1.198109
TP 75 1.098576
TP 76 0.089251
TP 77 0.142501
TP 78 0.697530
TP 79 0.992960
TP 80 0.986942
TP 81 0.785242
TP 82 1.022967
TP 83 0.713057
TP 84 0.608832
TP 85 0.023746
TP 86 0.990865
TP 87 0.222561
TP 88 0.401849
TP 89 0.695842
TP 90 0.350203
TP 91 1.141005
TP 92 1.185378
TP 93 0.126464
TP 94 0.986944
TP 95 0.434305
TP 96 0.429223
TP 97 0.438076
TP 98 1.058767
TP 99 0.314526
TP 100 1.081350
TP 101 0.854686
TP 102 0.259263
TP 103 0.017160
TP 104 0.776624
TP 105 0.708092
TP 106 0.207436
TP 107 0.125456
TP 108 1.144563
TP 109 0.537627
TP 110 0.923022
TP 111 0.023494
TP 112 0.323137
TP 113 0.518250
TP 114 0.430825
TP 115 0.738151
TP 116 1.128600
TP 117 0.619881
TP 118 1.108207
TP 119 0.658171
TP 120 0.941334
TP 121 0.255112
TP 122 0.499229
TP 123 0.665656
TP 124 0.088251
TP 125 0.945340
TP 126 0.246414
TP 127 1.154876
TP 128 0.182583
TP 129 0.672227
TP 130 1.128207
TP 131 0.697548
TP 132 0.558873
TP 133 0.975103
TP 134 0.561620
TP 135 0.659440
TP 136 0.981423
TP 137 0.168183
TP 138 0.266956
TP 139 0.022880
TP 140 0.763103
TP 141 0.993013
TP 142 0.735379
TP 143 0.626229
TP 144 0.860709
TP 145 0.000683
TP 146 0.083896
TP 147 0.306513
TP 148 0.292693
TP 149 0.140175
TP 150 1.198174
TP 151 0.796719
TP 152 0.850197
TP 153 0.923222
TP 154 0.022687
TP 155 0.130403
TP 156 0.058210
TP 157 1.120134
TP 158 1.008987
TP 159 0.914097
TP 160 0.628193
TP 161 1.151730
TP 162 0.817590
TP 163 0.061788
TP 164 0.605126
TP 165 0.469608
TP 166 0.266096
TP 167 1.178681
TP 168 0.553931
TP 169 0.923913
TP 170 0.110110
TP 171 0.312321
TP 172 0.044176
TP 173 0.842815
TP 174 0.939515
TP 175 0.438758
TP 176 1.066649
TP 177 0.584123
TP 178 0.733724
TP 179 0.233962
TP 180 0.093517
TP 181 1.051745
TP 182 1.133382
TP 183 0.175917
TP 184 0.184678
TP 185 0.489677
TP 186 0.911614
TP 187 0.590448
TP 188 1.135752
TP 189 0.784047
TP 190 0.559378
TP 191 0.030129
TP 192 0.907451
TP 193 0.642509
TP 194 1.111826
TP 195 0.220358
TP 196 0.273107
TP 197 0.727185
TP 198 0.556674
TP 199 0.915132
TP 200 0.237237
END

EOF
